c ren 1 -> 1
c ren 2 -> 2
c ren 3 -> 3
c ren 4 -> 4
c ren 5 -> 5
c ren 6 -> 6
c ren 7 -> 7
c ren 8 -> 8
c ren 9 -> 9
c ren 10 -> 10
c ren 11 -> 11
c ren 12 -> 12
c ren 13 -> 13
c ren 14 -> 14
c ren 15 -> 15
c ren 16 -> 16
c ren 17 -> 17
c ren 18 -> 18
c ren 19 -> 19
c ren 20 -> 20
c ren 21 -> 21
c ren 22 -> 22
c ren 23 -> 23
c ren 24 -> 24
c ren 25 -> 25
c ren 26 -> 26
c ren 27 -> 27
c ren 28 -> 28
c ren 29 -> 29
c ren 30 -> 30
c ren 31 -> 31
c ren 32 -> 32
c ren 33 -> 33
c ren 34 -> 34
c ren 35 -> 35
c ren 36 -> 36
c ren 37 -> 37
c ren 38 -> 38
c ren 39 -> 39
c ren 40 -> 40
c ren 41 -> 41
c ren 42 -> 42
c ren 43 -> 43
c ren 44 -> 44
c ren 45 -> 45
c ren 46 -> 46
c ren 47 -> 47
c ren 48 -> 48
c ren 49 -> 49
c ren 50 -> 50
c ren 51 -> 51
c ren 52 -> 52
c ren 53 -> 53
c ren 54 -> 54
c ren 55 -> 55
c ren 56 -> 56
c ren 57 -> 57
c ren 58 -> 58
c ren 59 -> 59
c ren 60 -> 60
c ren 61 -> 61
c ren 62 -> 62
c ren 63 -> 63
c ren 64 -> 64
c ren 65 -> 65
c ren 66 -> 66
c ren 67 -> 67
c ren 68 -> 68
c ren 69 -> 69
c ren 70 -> 70
c ren 71 -> 71
c ren 72 -> 72
c ren 73 -> 73
c ren 74 -> 74
c ren 75 -> 75
c ren 76 -> 76
c ren 77 -> 77
c ren 78 -> 78
c ren 79 -> 79
c ren 94 -> 80
c ren 101 -> 81
c ren 104 -> 82
c ren 107 -> 83
c ren 111 -> 84
c ren 112 -> 85
c ren 114 -> 86
c ren 115 -> 87
c ren 118 -> 88
c ren 119 -> 89
c ren 121 -> 90
c ren 122 -> 91
c ren 142 -> 92
c ren 157 -> 93
c ren 164 -> 94
c ren 167 -> 95
c ren 170 -> 96
c ren 174 -> 97
c ren 175 -> 98
c ren 177 -> 99
c ren 178 -> 100
c ren 181 -> 101
c ren 182 -> 102
c ren 184 -> 103
c ren 185 -> 104
c ren 207 -> 105
c ren 214 -> 106
c ren 215 -> 107
c ren 216 -> 108
c ren 217 -> 109
c ren 224 -> 110
c ren 229 -> 111
c ren 233 -> 112
c ren 248 -> 113
c ren 249 -> 114
c ren 251 -> 115
c ren 252 -> 116
c ren 256 -> 117
c ren 266 -> 118
c ren 267 -> 119
c ren 271 -> 120
c ren 272 -> 121
c ren 275 -> 122
c ren 276 -> 123
c ren 291 -> 124
c ren 301 -> 125
c ren 304 -> 126
c ren 305 -> 127
c ren 306 -> 128
c ren 310 -> 129
c ren 311 -> 130
c ren 314 -> 131
c ren 315 -> 132
c ren 318 -> 133
c ren 334 -> 134
c ren 344 -> 135
c ren 352 -> 136
c ren 355 -> 137
c ren 358 -> 138
c ren 359 -> 139
c ren 362 -> 140
c ren 368 -> 141
c ren 369 -> 142
c ren 380 -> 143
c ren 381 -> 144
c ren 393 -> 145
c ren 394 -> 146
c ren 406 -> 147
c ren 407 -> 148
c ren 410 -> 149
c ren 411 -> 150
c ren 414 -> 151
c ren 415 -> 152
c ren 418 -> 153
c ren 419 -> 154
c ren 421 -> 155
c ren 422 -> 156
p cnf 156 623
a 1 2 3 4 5 6 7 8 9 10 11 12 13 14 15 16 17 18 19 20 21 22 23 24 25 26 27 28 29 30 31 32 33 34 35 36 37 38 39 40 41 42 43 44 45 46 47 48 49 50 51 52 53 54 55 56 57 58 59 60 61 62 63 64 65 66 67 68 69 0
d 70 1 2 3 4 5 6 7 8 9 10 11 12 13 14 15 16 17 18 19 20 21 22 23 24 25 26 27 28 29 30 31 32 33 34 35 36 37 38 0
d 71 1 2 3 4 5 6 7 8 9 10 11 12 13 14 15 16 17 18 19 20 21 22 23 24 25 26 27 28 29 30 31 32 33 34 35 36 37 38 0
d 72 1 2 3 4 5 6 7 8 9 10 11 12 13 14 15 16 17 18 19 20 21 22 23 24 25 26 27 28 29 30 31 32 33 34 35 36 37 38 0
d 73 1 2 3 4 5 6 7 8 9 10 11 12 13 14 15 16 17 18 19 20 21 22 23 24 25 26 27 28 29 30 31 32 33 34 35 36 37 38 0
d 74 1 2 3 4 5 6 7 8 9 10 11 12 13 14 15 16 17 18 19 20 21 22 23 24 25 26 27 28 29 30 31 32 33 34 35 36 37 38 0
d 75 1 2 3 4 5 6 7 8 9 10 11 12 13 14 15 16 17 18 19 20 21 22 23 24 25 26 27 28 29 30 31 32 33 34 35 36 37 38 0
d 76 1 2 3 4 5 6 7 8 9 10 11 12 13 14 15 16 17 18 19 20 21 22 23 24 25 26 27 28 29 30 31 32 33 34 35 36 37 38 0
d 77 1 2 3 4 5 6 7 8 9 10 11 12 13 14 15 16 17 18 19 20 21 22 23 24 25 26 27 28 29 30 31 32 33 34 35 36 37 38 0
d 78 8 9 10 11 12 13 14 15 16 17 18 19 20 21 22 23 24 25 26 27 28 29 30 31 32 33 34 35 36 37 38 0
d 79 39 40 41 42 43 44 45 46 47 48 49 50 51 52 53 54 55 56 57 58 59 60 61 62 63 64 65 66 67 68 69 0
e 80 81 82 83 84 85 86 87 88 89 90 91 92 93 94 95 96 97 98 99 100 101 102 103 104 105 106 107 108 109 110 111 112 113 114 115 116 117 118 119 120 121 122 123 124 125 126 127 128 129 130 131 132 133 134 135 136 137 138 139 140 141 142 143 144 145 146 147 148 149 150 151 152 153 154 155 156 0
8 9 10 -11 39 40 41 -42 80 0
-8 39 -80 0
8 9 -10 -11 39 40 -41 -42 80 0
8 -39 -80 0
-8 -9 10 11 -39 -40 41 42 80 0
8 9 -10 11 39 40 -41 42 80 0
8 -9 10 11 39 -40 41 42 80 0
-8 -9 -10 11 -39 -40 -41 42 80 0
8 -9 -10 11 39 -40 -41 42 80 0
-9 40 -80 0
-8 9 10 11 -39 40 41 42 80 0
9 -40 -80 0
-8 -9 -10 -11 -39 -40 -41 -42 80 0
8 -9 -10 -11 39 -40 -41 -42 80 0
-8 9 10 -11 -39 40 41 -42 80 0
-8 9 -10 11 -39 40 -41 42 80 0
8 9 10 11 39 40 41 42 80 0
-10 41 -80 0
-8 -9 10 -11 -39 -40 41 -42 80 0
10 -41 -80 0
8 -9 10 -11 39 -40 41 -42 80 0
-8 9 -10 -11 -39 40 -41 -42 80 0
-11 42 -80 0
11 -42 -80 0
12 -13 43 -44 81 0
-12 43 -81 0
-12 -13 -43 -44 81 0
12 -43 -81 0
-12 13 -43 44 81 0
12 13 43 44 81 0
-13 44 -81 0
13 -44 -81 0
-14 -45 82 0
-14 45 -82 0
14 -45 -82 0
14 45 82 0
-15 -46 83 0
-15 46 -83 0
15 -46 -83 0
15 46 83 0
83 -92 0
20 21 22 23 51 52 53 54 -80 -81 -82 -83 84 85 86 87 88 89 90 91 92 0
20 21 22 -23 51 52 53 -54 -80 -81 -82 -83 84 85 86 87 88 89 90 91 92 0
20 21 -22 23 51 52 -53 54 -80 -81 -82 -83 84 85 86 87 88 89 90 91 92 0
-47 -84 0
16 -84 0
-16 47 84 0
47 -85 0
-16 -85 0
16 -47 85 0
-85 -92 0
20 21 -22 -23 51 52 -53 -54 -80 -81 -82 -83 84 85 86 87 88 89 90 91 92 0
-48 -86 0
17 -86 0
-17 48 86 0
48 -87 0
-17 -87 0
17 -48 87 0
-87 -92 0
20 -21 22 23 51 -52 53 54 -80 -81 -82 -83 84 85 86 87 88 89 90 91 92 0
20 -21 22 -23 51 -52 53 -54 -80 -81 -82 -83 84 85 86 87 88 89 90 91 92 0
-49 -88 0
18 -88 0
-18 49 88 0
49 -89 0
-18 -89 0
18 -49 89 0
-89 -92 0
20 -21 -22 23 51 -52 -53 54 -80 -81 -82 -83 84 85 86 87 88 89 90 91 92 0
-50 -90 0
19 -90 0
-19 50 90 0
50 -91 0
-19 -91 0
19 -50 91 0
-91 -92 0
20 -21 -22 -23 51 -52 -53 -54 -80 -81 -82 -83 84 85 86 87 88 89 90 91 92 0
-20 21 22 23 -51 52 53 54 -80 -81 -82 -83 84 85 86 87 88 89 90 91 92 0
-20 21 22 -23 -51 52 53 -54 -80 -81 -82 -83 84 85 86 87 88 89 90 91 92 0
-20 21 -22 -23 -51 52 -53 -54 -80 -81 -82 -83 84 85 86 87 88 89 90 91 92 0
-20 -21 22 -23 -51 -52 53 -54 -80 -81 -82 -83 84 85 86 87 88 89 90 91 92 0
-88 -92 0
-20 -21 22 23 -51 -52 53 54 -80 -81 -82 -83 84 85 86 87 88 89 90 91 92 0
-20 -21 -22 23 -51 -52 -53 54 -80 -81 -82 -83 84 85 86 87 88 89 90 91 92 0
82 -92 0
80 -92 0
81 -92 0
-84 -92 0
-86 -92 0
-20 21 -22 23 -51 52 -53 54 -80 -81 -82 -83 84 85 86 87 88 89 90 91 92 0
-90 -92 0
-20 -21 -22 -23 -51 -52 -53 -54 -80 -81 -82 -83 84 85 86 87 88 89 90 91 92 0
24 25 26 -27 55 56 57 -58 93 0
24 25 -26 -27 55 56 -57 -58 93 0
-24 -25 26 27 -55 -56 57 58 93 0
24 25 -26 27 55 56 -57 58 93 0
24 -25 26 27 55 -56 57 58 93 0
-24 -25 -26 27 -55 -56 -57 58 93 0
24 -25 -26 27 55 -56 -57 58 93 0
-24 25 26 27 -55 56 57 58 93 0
-24 -25 -26 -27 -55 -56 -57 -58 93 0
24 -25 -26 -27 55 -56 -57 -58 93 0
-24 25 26 -27 -55 56 57 -58 93 0
-24 25 -26 27 -55 56 -57 58 93 0
24 25 26 27 55 56 57 58 93 0
-24 -25 26 -27 -55 -56 57 -58 93 0
24 -25 26 -27 55 -56 57 -58 93 0
-24 25 -26 -27 -55 56 -57 -58 93 0
28 -29 59 -60 94 0
-28 -29 -59 -60 94 0
-28 29 -59 60 94 0
28 29 59 60 94 0
-30 -61 95 0
30 61 95 0
-31 -62 96 0
31 62 96 0
36 37 38 67 68 69 -78 79 -92 -93 -94 -95 -96 97 98 99 100 101 102 103 104 0
36 37 38 67 68 69 78 -79 -92 -93 -94 -95 -96 97 98 99 100 101 102 103 104 0
36 -37 38 67 -68 69 -78 79 -92 -93 -94 -95 -96 97 98 99 100 101 102 103 104 0
-63 -97 0
32 -97 0
63 -98 0
-32 -98 0
36 -37 38 67 -68 69 78 -79 -92 -93 -94 -95 -96 97 98 99 100 101 102 103 104 0
-64 -99 0
33 -99 0
64 -100 0
-33 -100 0
-36 37 38 -67 68 69 -78 79 -92 -93 -94 -95 -96 97 98 99 100 101 102 103 104 0
-36 37 38 -67 68 69 78 -79 -92 -93 -94 -95 -96 97 98 99 100 101 102 103 104 0
-65 -101 0
34 -101 0
65 -102 0
-34 -102 0
-36 -37 38 -67 -68 69 -78 79 -92 -93 -94 -95 -96 97 98 99 100 101 102 103 104 0
-66 -103 0
35 -103 0
66 -104 0
-35 -104 0
-36 -37 38 -67 -68 69 78 -79 -92 -93 -94 -95 -96 97 98 99 100 101 102 103 104 0
36 37 -38 67 68 -69 -78 79 -92 -93 -94 -95 -96 97 98 99 100 101 102 103 104 0
36 37 -38 67 68 -69 78 -79 -92 -93 -94 -95 -96 97 98 99 100 101 102 103 104 0
36 -37 -38 67 -68 -69 78 -79 -92 -93 -94 -95 -96 97 98 99 100 101 102 103 104 0
36 -37 -38 67 -68 -69 -78 79 -92 -93 -94 -95 -96 97 98 99 100 101 102 103 104 0
-36 37 -38 -67 68 -69 78 -79 -92 -93 -94 -95 -96 97 98 99 100 101 102 103 104 0
-36 37 -38 -67 68 -69 -78 79 -92 -93 -94 -95 -96 97 98 99 100 101 102 103 104 0
-36 -37 -38 -67 -68 -69 -78 79 -92 -93 -94 -95 -96 97 98 99 100 101 102 103 104 0
-36 -37 -38 -67 -68 -69 78 -79 -92 -93 -94 -95 -96 97 98 99 100 101 102 103 104 0
67 -68 69 73 74 -78 79 110 -134 -135 -136 -137 138 139 141 142 143 144 145 146 147 148 151 152 153 154 155 156 0
22 -105 0
8 -105 0
-8 -22 105 0
-9 40 110 -111 0
9 -39 40 -105 111 0
-8 -21 105 106 -122 0
45 -46 -76 108 109 -111 112 114 118 119 120 121 122 123 124 0
-2 73 -115 0
44 -106 122 0
8 73 -122 0
-8 -13 -115 0
-2 13 -44 73 123 0
9 -73 -105 -123 0
-2 13 73 -110 0
2 9 -105 -123 0
1 8 116 0
-1 -73 -116 0
-13 21 -107 -123 0
73 -106 0
-8 -37 -106 0
-13 21 44 -107 122 0
1 37 116 0
-8 -37 -116 0
1 -106 0
16 -107 0
8 -107 0
-8 -16 107 0
14 -108 0
8 -108 0
-8 -14 108 0
10 -109 0
8 -109 0
-8 -10 109 0
21 -52 -108 132 0
1 -7 47 48 108 109 125 0
-13 21 44 -108 122 0
-9 -107 117 0
21 107 108 109 -117 0
-105 -109 117 0
21 -107 -110 0
-8 -9 -21 117 0
1 -47 48 -107 -109 125 0
-108 -112 0
2 21 -108 -123 0
-9 106 107 108 109 -122 0
-9 -73 106 107 108 109 110 0
47 -107 -108 -125 0
1 -47 48 -107 -108 125 0
2 21 -107 -123 0
-8 -21 52 110 131 0
47 -107 -109 -125 0
-106 -123 0
-8 -9 -21 -73 106 110 0
2 21 44 -108 122 0
9 -40 -105 -111 0
-8 -9 -21 -44 106 123 0
-9 -44 106 107 108 109 123 0
-39 40 -110 111 0
-8 -9 -21 106 -122 0
-9 -109 117 0
-109 -112 0
-40 -110 -111 0
21 -52 -109 132 0
-105 -108 117 0
-2 33 -73 75 -78 150 0
21 -109 -110 0
39 -111 0
21 -109 -131 0
9 -105 -110 0
70 -112 0
3 4 -70 71 133 0
-15 25 33 -77 -78 149 150 0
-4 -112 0
-1 -47 -48 -107 -108 125 0
9 -13 44 -105 122 0
-71 -112 0
-4 -133 0
-13 21 -108 -123 0
3 -112 0
2 -9 106 107 108 109 110 0
1 8 -75 -78 149 150 0
-7 -41 108 109 114 0
7 41 -112 113 0
-107 109 -113 0
-7 -10 -14 -45 107 112 -124 0
-7 14 -45 46 76 107 -109 -111 114 118 119 120 121 122 123 124 0
45 46 76 108 109 -111 112 114 118 119 120 121 122 123 124 0
-45 -107 108 -124 0
-7 14 45 107 -109 -124 0
-7 10 107 -108 -114 0
7 -45 108 -124 0
-7 14 -45 -46 -76 107 -109 -111 114 118 119 120 121 122 123 124 0
-14 45 -46 -76 108 -111 112 113 114 118 119 120 121 122 123 124 0
-45 108 109 112 -124 0
-14 45 46 76 108 -111 112 114 118 119 120 121 122 123 124 0
-7 -10 -41 107 -108 114 0
-7 -10 -14 45 -46 -76 107 -111 112 113 114 118 119 120 121 122 123 124 0
-10 -45 107 109 112 -124 0
-7 -10 -41 109 114 0
-7 14 -41 107 -109 114 0
-7 10 41 107 -108 113 0
-1 -7 47 -48 108 109 125 0
-14 -45 108 112 -124 0
33 71 -78 -108 149 150 0
-8 -9 -13 106 107 108 109 110 0
-1 -7 -10 -47 -48 -108 125 0
10 45 -108 -124 0
7 -47 107 -125 0
-7 -10 47 -108 -125 0
-41 108 109 112 114 0
-45 -46 -76 -107 -108 -111 113 114 118 119 120 121 122 123 124 0
10 -47 107 -125 0
-7 -10 109 -113 0
-45 46 76 -107 -108 -111 113 114 118 119 120 121 122 123 124 0
1 10 47 48 107 125 0
7 41 -109 113 0
-7 -10 -14 45 46 76 107 -111 112 113 114 118 119 120 121 122 123 124 0
-1 10 47 -48 107 125 0
-7 108 109 -113 0
7 -45 46 76 -108 -111 113 114 118 119 120 121 122 123 124 0
52 107 108 109 110 131 0
-41 -113 0
-7 -10 107 -108 -113 0
108 109 112 -113 0
41 -114 0
41 -107 -109 113 0
7 -112 -114 0
-114 -124 0
45 -107 -108 -124 0
10 -45 -46 -76 -108 -111 113 114 118 119 120 121 122 123 124 0
-2 8 73 -110 0
8 -44 73 123 0
-1 8 -73 106 0
-1 37 -73 106 0
2 -8 -9 -21 106 110 0
-105 -107 117 0
2 21 44 -109 122 0
-8 -9 -13 -21 106 110 0
9 105 -117 0
-21 -105 117 0
1 47 48 107 108 125 0
8 -117 0
-47 107 108 -125 0
107 108 109 110 -132 0
21 -107 -131 0
-8 -21 110 -132 0
-1 47 -48 107 108 125 0
29 -31 110 115 116 -117 -146 0
7 11 -24 -55 56 77 110 115 116 -117 135 0
-11 55 56 77 135 0
55 56 77 -115 135 0
-7 55 -56 -77 135 0
-8 -11 -24 140 0
-4 8 57 136 0
-8 -26 57 75 136 0
-11 24 -26 42 110 115 116 -117 118 0
-8 24 -26 -140 0
8 -118 0
7 11 -42 119 0
8 57 70 136 0
8 -42 119 0
7 11 -118 0
26 57 70 136 0
-42 -110 119 0
7 11 -140 0
-4 26 57 136 0
-42 -118 0
7 11 26 -55 56 77 110 115 116 -117 135 0
42 -119 0
-110 -118 0
-119 -124 0
1 7 47 48 107 125 0
-3 26 57 136 0
7 -41 109 112 114 0
3 4 26 -57 -70 136 0
7 11 26 -55 -56 -77 110 115 116 -117 135 0
-43 -120 0
72 -120 0
43 -72 120 0
43 -121 0
-72 -121 0
-43 72 121 0
-121 -124 0
-7 -45 -46 -76 -111 -112 113 114 118 119 120 121 122 123 124 0
55 56 77 -116 135 0
2 9 44 -105 122 0
2 21 44 -107 122 0
-7 55 56 77 135 0
-44 -122 0
9 -13 -105 -123 0
-107 -112 0
44 -123 0
-2 13 73 -122 0
-106 -110 0
-123 -124 0
-7 -45 46 76 -111 -112 114 118 119 120 121 122 123 124 0
26 -42 119 0
26 -118 0
-118 -124 0
-7 45 -112 -124 0
7 45 -46 -76 108 -111 113 114 118 119 120 121 122 123 124 0
-3 4 -70 71 107 108 109 112 0
-122 -124 0
45 -46 -76 -107 108 -111 113 114 118 119 120 121 122 123 124 0
111 -124 0
2 8 115 0
-113 -124 0
-120 -124 0
7 -109 -114 0
-8 12 33 -35 -70 -78 149 150 0
-116 -147 0
1 -7 -10 -47 48 -108 125 0
-8 -12 -15 33 72 -78 149 150 0
-116 -145 0
7 109 112 -113 0
-8 -11 26 140 0
-116 -141 0
10 -45 46 76 -108 -111 113 114 118 119 120 121 122 123 124 0
46 -76 -124 0
-116 -118 0
55 -56 -77 -116 135 0
-46 76 -124 0
55 56 77 117 135 0
-42 -116 119 0
117 -147 0
-116 -143 0
117 -143 0
117 -145 0
-7 -10 45 -46 -76 107 109 -111 112 114 118 119 120 121 122 123 124 0
1 7 -47 48 -107 125 0
45 46 76 -107 108 -111 113 114 118 119 120 121 122 123 124 0
21 -108 -131 0
7 -45 -46 -76 -108 -111 113 114 118 119 120 121 122 123 124 0
-1 7 -47 -48 -107 125 0
7 47 -107 -125 0
-8 -15 33 -36 74 -78 149 150 0
-107 -109 -114 0
7 45 -108 -124 0
2 13 115 0
55 -56 -77 117 135 0
-7 -47 108 109 -125 0
117 -118 0
-1 7 47 -48 107 125 0
117 -141 0
7 45 46 76 108 -111 113 114 118 119 120 121 122 123 124 0
21 -108 -110 0
-1 48 -125 0
-10 109 112 -113 0
-41 -107 109 114 0
1 -48 -125 0
-13 21 44 -109 122 0
-10 -41 109 112 114 0
21 -73 -109 -123 0
-42 117 119 0
-13 21 -109 -123 0
49 75 126 0
49 -75 -126 0
-9 -39 -40 110 111 0
9 44 -73 -105 122 0
-49 75 -126 0
21 -73 -107 -123 0
-49 -75 126 0
2 21 -109 -123 0
-39 -40 105 110 111 0
-50 -127 0
71 -127 0
50 -71 127 0
50 -128 0
-71 -128 0
-50 71 128 0
-128 -134 0
23 -53 54 -74 -75 -105 -124 -125 -126 127 128 129 130 131 132 134 0
40 105 110 -111 0
21 44 -73 -107 122 0
-2 -53 54 -75 -105 -124 -125 -126 127 128 129 131 132 134 0
21 -73 -108 -123 0
21 44 -73 -108 122 0
2 -53 -54 74 -75 -105 -124 -125 -126 127 128 130 131 132 134 0
8 -73 115 0
-51 -129 0
2 -129 0
-2 51 129 0
51 -130 0
-2 -130 0
2 -51 130 0
-130 -134 0
2 -23 -53 -54 -75 -105 -124 -125 -126 127 128 130 131 132 134 0
-8 -21 -44 105 106 123 0
-8 12 -15 33 -72 -78 149 150 0
33 35 71 -78 149 150 0
105 106 107 108 109 -122 0
-52 -131 0
-110 -131 0
-9 -108 117 0
52 -132 0
-1 -47 -48 -107 -109 125 0
-52 -110 132 0
-132 -134 0
-2 -53 54 105 -124 -125 -126 128 129 131 132 -133 134 0
-8 -13 -21 105 106 110 0
-44 105 106 107 108 109 123 0
2 -53 -54 74 105 -124 -125 -126 128 130 131 132 -133 134 0
2 -8 -21 105 106 110 0
-3 -133 0
-71 -133 0
70 -133 0
2 -8 -23 53 -54 75 -124 -125 -126 127 128 130 131 132 133 134 0
-129 -134 0
-2 53 54 105 -124 -125 -126 127 128 129 131 132 133 134 0
2 -23 53 -54 75 -105 -124 -125 -126 127 128 130 131 132 134 0
-2 53 54 75 -105 -124 -125 -126 127 128 129 131 132 134 0
2 53 -54 74 75 -124 -125 -126 127 128 130 131 132 133 134 0
23 53 54 -74 75 -105 -124 -125 -126 127 128 129 130 131 132 134 0
23 53 54 -74 75 -124 -125 -126 127 128 129 130 131 132 133 134 0
8 -53 54 -74 -124 -125 -126 128 129 130 131 132 -133 134 0
2 53 -54 74 105 -124 -125 -126 127 128 130 131 132 133 134 0
2 53 -54 74 75 -105 -124 -125 -126 127 128 130 131 132 134 0
23 -53 54 -74 105 -124 -125 -126 128 129 130 131 132 -133 134 0
33 -35 36 -73 -78 149 150 0
-127 -134 0
126 -134 0
8 53 54 -74 -124 -125 -126 127 128 129 130 131 132 133 134 0
125 -134 0
2 -8 -23 53 -54 105 -124 -125 -126 127 128 130 131 132 133 134 0
23 53 54 -74 105 -124 -125 -126 127 128 129 130 131 132 133 134 0
-131 -134 0
-8 -21 -73 105 106 110 0
2 105 106 107 108 109 110 0
-2 53 54 75 -124 -125 -126 127 128 129 131 132 133 134 0
13 -73 115 0
-73 105 106 107 108 109 110 0
2 -8 -23 -53 -54 105 -124 -125 -126 128 130 131 132 -133 134 0
-8 -13 105 106 107 108 109 110 0
124 -134 0
21 44 -73 -109 122 0
-7 -24 140 0
-24 -118 0
-42 -115 119 0
-24 -42 119 0
-7 26 140 0
55 -56 -77 -110 135 0
7 11 -24 -55 -56 -77 110 115 116 -117 135 0
-11 24 -26 110 115 116 -117 -119 0
55 56 77 -110 135 0
-115 -118 0
57 70 75 136 0
-4 57 75 136 0
-8 24 -26 55 56 77 135 0
-3 57 75 136 0
-8 -11 55 -56 -77 135 0
3 4 8 -57 -70 136 0
-8 -26 -57 -75 136 0
-3 8 57 136 0
58 70 137 0
-58 -70 137 0
-67 68 -69 -74 -78 79 -106 -134 -135 -136 -137 138 139 141 142 143 144 145 146 147 148 151 152 153 154 155 156 0
-67 68 -69 -73 -74 -78 79 -110 -134 -135 -136 -137 138 139 142 144 146 148 151 152 153 154 155 156 0
-59 -138 0
6 -138 0
59 -139 0
-6 -139 0
67 -68 -69 -73 74 -78 79 106 110 -134 -135 -136 -137 138 139 141 142 143 144 145 146 147 148 151 152 153 154 155 156 0
-7 -10 45 46 76 107 109 -111 112 114 118 119 120 121 122 123 124 0
-8 24 -26 55 -56 -77 135 0
29 110 115 116 -117 -140 -142 0
-60 -141 0
55 -56 -77 -115 135 0
60 -142 0
-110 -141 0
-8 -29 -140 -141 0
67 68 -69 74 -78 79 -106 -134 -135 -136 -137 138 139 141 142 143 144 145 146 147 148 151 152 153 154 155 156 0
67 68 -69 -73 74 -78 79 -110 -134 -135 -136 -137 138 139 142 144 146 148 151 152 153 154 155 156 0
-29 -30 -31 32 110 115 116 -117 -140 -148 0
-32 110 115 116 -117 140 -148 0
30 140 -143 0
31 -32 110 115 116 -117 -148 0
29 31 -145 0
-61 -143 0
-30 110 115 116 -117 140 -144 0
61 -144 0
-110 -143 0
-29 -30 -140 -143 0
-67 -68 69 73 -74 -78 79 110 -134 -135 -136 -137 138 139 141 142 143 144 145 146 147 148 151 152 153 154 155 156 0
8 -145 0
-7 24 -26 110 115 116 -117 -119 0
-29 -30 31 110 115 116 -117 -140 -146 0
30 31 -145 0
30 32 -147 0
30 -32 110 115 116 -117 -148 0
-7 24 -26 42 110 115 116 -117 118 0
-31 110 115 116 -117 140 -146 0
-29 110 115 116 -117 140 -142 0
29 30 -143 0
-115 -147 0
30 -31 110 115 116 -117 -146 0
8 -147 0
29 140 -141 0
29 -32 110 115 116 -117 -148 0
-62 -145 0
29 32 -147 0
-115 -141 0
62 -146 0
-110 -145 0
-29 -30 -31 -32 -140 -147 0
67 68 69 73 74 -78 79 -110 -134 -135 -136 -137 138 139 142 144 146 148 151 152 153 154 155 156 0
8 73 116 0
-67 -68 -69 -73 -74 -78 79 106 110 -134 -135 -136 -137 138 139 141 142 143 144 145 146 147 148 151 152 153 154 155 156 0
32 140 -147 0
31 32 -147 0
8 -143 0
29 -30 110 115 116 -117 -144 0
31 140 -145 0
-8 -15 33 36 -74 -78 149 150 0
-29 -30 -31 -140 -145 0
-115 -145 0
-63 -147 0
-115 -143 0
63 -148 0
-110 -147 0
37 73 116 0
-8 -33 -152 0
33 71 -78 -109 149 150 0
6 -149 0
-2 -149 0
2 -6 149 0
5 -150 0
-1 -150 0
1 -5 150 0
-149 -152 0
-1 8 73 75 -78 149 0
8 149 150 -151 0
-64 -151 0
64 -152 0
-150 -152 0
-67 68 69 73 -74 -78 79 -110 -134 -135 -136 -137 138 139 142 144 146 148 151 152 153 154 155 156 0
-65 -153 0
5 -153 0
65 -154 0
-5 -154 0
-66 -155 0
7 -155 0
66 -156 0
-7 -156 0
-29 30 110 115 116 -117 -140 -144 0
-2 8 -73 75 -78 150 0
15 28 33 -72 -74 -78 149 150 0
21 -52 -107 132 0
1 33 73 -75 -78 149 150 0
-8 -32 33 -78 149 150 0
-8 -25 33 -35 73 -78 149 150 0
8 -77 -78 149 150 0
-1 33 73 75 -78 149 0
-8 -12 33 -35 70 -78 149 150 0
2 -8 -23 33 -74 -78 149 150 0
33 149 150 -151 0
2 33 -73 -75 -78 149 150 0
33 38 -71 -73 -78 149 150 0
8 71 -78 149 150 0
-8 33 -38 -71 73 -78 149 150 0
27 33 -70 -71 -78 149 150 0
15 33 34 -72 77 -78 149 150 0
8 -72 -78 149 150 0
33 71 -78 -107 149 150 0
15 17 20 33 -77 -78 149 150 0
-8 -27 33 70 -71 -78 149 150 0
-8 33 -35 -36 73 -78 149 150 0
-8 15 -28 33 72 -74 -78 149 150 0
-8 15 33 -34 72 77 -78 149 150 0
8 -73 -78 149 150 0
-8 25 33 -35 -73 -78 149 150 0
8 -70 -78 149 150 0
33 71 -78 -105 149 150 0
-8 -15 -25 33 77 -78 149 150 0
8 9 10 11 12 13 14 15 16 17 18 19 20 21 22 23 24 25 26 27 28 29 30 31 32 33 34 35 36 37 38 78 0
